p cnf 83 188
a 8 2 15 9 3 16 1 7 14 21 28 41 32 37 56 47 52 61 0
d 33 2 3 0
d 42 32 37 0
d 48 15 16 0
d 57 47 52 0
d 77 56 61 0
d 62 15 16 0
d 4 2 3 0
d 5 1 2 3 0
d 6 1 2 3 0
d 10 8 9 0
d 11 7 8 9 0
d 12 7 8 9 0
d 13 1 2 3 7 8 9 0
d 17 15 16 0
d 18 14 15 16 0
d 19 14 15 16 0
d 20 1 2 3 7 8 9 14 15 16 0
d 22 1 7 0
d 23 2 3 0
d 24 1 7 2 3 0
d 25 21 1 7 2 3 0
d 26 21 1 7 2 3 0
d 27 1 2 3 7 8 9 14 15 16 21 0
d 29 28 8 9 0
d 30 28 8 9 0
d 31 1 2 3 7 8 9 14 15 16 21 28 0
d 34 32 2 3 0
d 35 32 2 3 0
d 36 1 2 3 7 8 9 14 15 16 21 28 32 0
d 38 37 28 0
d 39 37 28 0
d 40 1 2 3 7 8 9 14 15 16 21 28 32 37 0
d 43 32 37 2 3 0
d 44 41 32 37 2 3 0
d 45 41 32 37 2 3 0
d 46 1 2 3 7 8 9 14 15 16 21 28 32 37 41 0
d 49 47 15 16 0
d 50 47 15 16 0
d 51 1 2 3 7 8 9 14 15 16 21 28 32 37 41 47 0
d 53 52 41 0
d 54 52 41 0
d 55 1 2 3 7 8 9 14 15 16 21 28 32 37 41 47 52 0
d 58 56 47 52 0
d 59 56 47 52 0
d 60 1 2 3 7 8 9 14 15 16 21 28 32 37 41 47 52 56 0
d 63 61 15 16 0
d 64 61 15 16 0
d 65 1 2 3 7 8 9 14 15 16 21 28 32 37 41 47 52 56 61 0
d 66 8 9 0
d 67 8 9 0
d 68 8 9 0
d 69 2 3 28 0
d 70 1 7 0
d 71 2 3 28 1 7 0
d 72 8 9 2 3 28 1 7 0
d 73 15 16 41 0
d 74 14 21 0
d 75 15 16 41 14 21 0
d 76 8 9 2 3 28 1 7 15 16 41 14 21 0
d 78 14 21 0
d 79 15 16 0
d 80 14 21 15 16 0
d 81 56 61 14 21 15 16 0
d 82 8 9 2 3 28 1 7 15 16 41 14 21 56 61 0
d 83 1 2 3 7 8 9 14 15 16 21 28 32 37 41 47 52 56 61 0
4 -2 3 0
4 2 -3 0
-4 -2 -3 0
-4 2 3 0
5 -1 -4 0
5 1 4 0
-5 -1 4 0
-5 1 -4 0
6 5 0
-6 -5 0
10 -8 9 0
10 8 -9 0
-10 -8 -9 0
-10 8 9 0
11 -7 -10 0
11 7 10 0
-11 -7 10 0
-11 7 -10 0
12 11 0
-12 -11 0
13 -6 0
13 -12 0
-13 6 12 0
17 -15 16 0
17 15 -16 0
-17 -15 -16 0
-17 15 16 0
18 -14 -17 0
18 14 17 0
-18 -14 17 0
-18 14 -17 0
19 18 0
-19 -18 0
20 -13 0
20 -19 0
-20 13 19 0
-22 1 0
-22 7 0
22 -1 -7 0
-23 2 0
-23 3 0
23 -2 -3 0
24 -22 0
24 -23 0
-24 22 23 0
25 -21 -24 0
25 21 24 0
-25 -21 24 0
-25 21 -24 0
26 25 0
-26 -25 0
27 -20 0
27 -26 0
-27 20 26 0
29 -28 -10 0
29 28 10 0
-29 -28 10 0
-29 28 -10 0
30 29 0
-30 -29 0
31 -27 0
31 -30 0
-31 27 30 0
34 -32 -33 0
34 32 33 0
-34 -32 33 0
-34 32 -33 0
35 34 0
-35 -34 0
36 -31 0
36 -35 0
-36 31 35 0
38 -37 -28 0
38 37 28 0
-38 -37 28 0
-38 37 -28 0
39 38 0
-39 -38 0
40 -36 0
40 -39 0
-40 36 39 0
43 -42 0
43 -23 0
-43 42 23 0
44 -41 -43 0
44 41 43 0
-44 -41 43 0
-44 41 -43 0
45 44 0
-45 -44 0
46 -40 0
46 -45 0
-46 40 45 0
49 -47 -48 0
49 47 48 0
-49 -47 48 0
-49 47 -48 0
50 49 0
-50 -49 0
51 -46 0
51 -50 0
-51 46 50 0
53 -52 -41 0
53 52 41 0
-53 -52 41 0
-53 52 -41 0
54 53 0
-54 -53 0
55 -51 0
55 -54 0
-55 51 54 0
58 -56 -57 0
58 56 57 0
-58 -56 57 0
-58 56 -57 0
59 58 0
-59 -58 0
60 -55 0
60 -59 0
-60 55 59 0
63 -61 -62 0
63 61 62 0
-63 -61 62 0
-63 61 -62 0
64 63 0
-64 -63 0
65 -60 0
65 -64 0
-65 60 64 0
-66 8 0
-66 9 0
66 -8 -9 0
67 66 0
-67 -66 0
68 -67 -66 0
68 67 66 0
-68 -67 66 0
-68 67 -66 0
69 -33 28 0
69 33 -28 0
-69 -33 -28 0
-69 33 28 0
70 -1 7 0
70 1 -7 0
-70 -1 -7 0
-70 1 7 0
71 -69 -70 0
71 69 70 0
-71 -69 70 0
-71 69 -70 0
-72 68 0
-72 71 0
72 -68 -71 0
73 -48 41 0
73 48 -41 0
-73 -48 -41 0
-73 48 41 0
74 -14 21 0
74 14 -21 0
-74 -14 -21 0
-74 14 21 0
75 -73 -74 0
75 73 74 0
-75 -73 74 0
-75 73 -74 0
-76 72 0
-76 75 0
76 -72 -75 0
-78 14 0
-78 21 0
78 -14 -21 0
-79 15 0
-79 16 0
79 -15 -16 0
80 -78 0
80 -79 0
-80 78 79 0
81 -77 -80 0
81 77 80 0
-81 -77 80 0
-81 77 -80 0
-82 76 0
-82 81 0
82 -76 -81 0
83 -65 0
83 -82 0
-83 65 82 0
83 0
